100
300
240
238
237
236
233
230
227
226
222
222
215
215
214
214
212
212
208
207
206
203
203
202
201
200
199
198
191
191
190
189
180
178
178
177
177
176
176
175
175
169
168
168
168
167
163
159
158
157
155
153
153
149
147
147
145
144
144
143
142
142
141
141
140
139
138
138
138
135
131
128
127
124
104
103
102
101
101
100
99
99
99
98
93
91
91
90
90
89
89
87
82
80
78
78
77
74
71
70
67
63
